array [1..8] of int: X_INTRODUCED_42_ = [1,1,1,2,1,3,4,4];
array [1..2] of int: X_INTRODUCED_44_ = [-1,1];
array [1..4] of int: X_INTRODUCED_55_ = [-1,1,1,-1];
array [1..4] of int: X_INTRODUCED_69_ = [1,-1,1,-1];
array [1..3] of int: X_INTRODUCED_79_ = [1,1,-1];
array [1..3] of int: X_INTRODUCED_109_ = [1,-1,-1];
array [1..3] of int: X_INTRODUCED_260_ = [1,1,1];
array [1..4] of int: X_INTRODUCED_286_ = [1,-5,-7,-3];
array [1..4] of int: X_INTRODUCED_289_ = [-1,-1,1,1];
var 0..178: X_INTRODUCED_0_;
var 0..178: X_INTRODUCED_1_;
var 0..178: X_INTRODUCED_2_;
var 0..178: X_INTRODUCED_3_;
var 0..178: X_INTRODUCED_4_;
var 0..178: X_INTRODUCED_5_;
var 0..178: X_INTRODUCED_6_;
var 0..178: X_INTRODUCED_7_;
var 0..178: X_INTRODUCED_8_;
var 0..3: trips:: output_var;
var 0..118: X_INTRODUCED_10_;
var 0..118: X_INTRODUCED_11_;
var 0..118: X_INTRODUCED_12_;
var 0..213: X_INTRODUCED_14_;
var 0..213: X_INTRODUCED_15_;
var 0..213: X_INTRODUCED_16_;
var 0..124: X_INTRODUCED_18_;
var 0..124: X_INTRODUCED_19_;
var 0..124: X_INTRODUCED_20_;
var 0..118: X_INTRODUCED_22_;
var 0..118: X_INTRODUCED_23_;
var 0..118: X_INTRODUCED_24_;
var 0..213: X_INTRODUCED_26_;
var 0..213: X_INTRODUCED_27_;
var 0..213: X_INTRODUCED_28_;
var 0..124: X_INTRODUCED_30_;
var 0..124: X_INTRODUCED_31_;
var 0..124: X_INTRODUCED_32_;
var 0..2263: objective:: output_var:: is_defined_var;
var bool: X_INTRODUCED_34_ ::var_is_introduced :: is_defined_var;
var -54..124: X_INTRODUCED_36_ ::var_is_introduced :: is_defined_var;
var -60..118: X_INTRODUCED_38_ ::var_is_introduced :: is_defined_var;
var bool: X_INTRODUCED_39_ ::var_is_introduced :: is_defined_var;
var bool: X_INTRODUCED_40_ ::var_is_introduced :: is_defined_var;
var 1..4: X_INTRODUCED_41_ ::var_is_introduced ;
var bool: X_INTRODUCED_45_ ::var_is_introduced :: is_defined_var;
var 0..1: X_INTRODUCED_46_ ::var_is_introduced :: is_defined_var;
var bool: X_INTRODUCED_47_ ::var_is_introduced :: is_defined_var;
var 0..1: X_INTRODUCED_48_ ::var_is_introduced :: is_defined_var;
var bool: X_INTRODUCED_49_ ::var_is_introduced :: is_defined_var;
var 0..1: X_INTRODUCED_50_ ::var_is_introduced :: is_defined_var;
var 1..8: X_INTRODUCED_51_ ::var_is_introduced :: is_defined_var;
var 1..4: X_INTRODUCED_52_ ::var_is_introduced :: is_defined_var;
var bool: X_INTRODUCED_53_ ::var_is_introduced :: is_defined_var;
var bool: X_INTRODUCED_56_ ::var_is_introduced :: is_defined_var;
var -1..0: X_INTRODUCED_57_ ::var_is_introduced ;
var bool: X_INTRODUCED_64_ ::var_is_introduced :: is_defined_var;
var bool: X_INTRODUCED_65_ ::var_is_introduced :: is_defined_var;
var -1..0: X_INTRODUCED_67_ ::var_is_introduced :: is_defined_var;
var bool: X_INTRODUCED_70_ ::var_is_introduced :: is_defined_var;
var -118..60: X_INTRODUCED_71_ ::var_is_introduced ;
var bool: X_INTRODUCED_78_ ::var_is_introduced :: is_defined_var;
var bool: X_INTRODUCED_80_ ::var_is_introduced :: is_defined_var;
var bool: X_INTRODUCED_81_ ::var_is_introduced :: is_defined_var;
var -1..0: X_INTRODUCED_82_ ::var_is_introduced ;
var bool: X_INTRODUCED_88_ ::var_is_introduced :: is_defined_var;
var bool: X_INTRODUCED_89_ ::var_is_introduced :: is_defined_var;
var -118..60: X_INTRODUCED_91_ ::var_is_introduced :: is_defined_var;
var bool: X_INTRODUCED_93_ ::var_is_introduced :: is_defined_var;
var -213..-1: X_INTRODUCED_94_ ::var_is_introduced ;
var bool: X_INTRODUCED_100_ ::var_is_introduced :: is_defined_var;
var bool: X_INTRODUCED_101_ ::var_is_introduced :: is_defined_var;
var -213..0: X_INTRODUCED_103_ ::var_is_introduced :: is_defined_var;
var bool: X_INTRODUCED_105_ ::var_is_introduced :: is_defined_var;
var bool: X_INTRODUCED_110_ ::var_is_introduced :: is_defined_var;
var bool: X_INTRODUCED_112_ ::var_is_introduced :: is_defined_var;
var bool: X_INTRODUCED_114_ ::var_is_introduced :: is_defined_var;
var bool: X_INTRODUCED_115_ ::var_is_introduced :: is_defined_var;
var bool: X_INTRODUCED_116_ ::var_is_introduced :: is_defined_var;
var -178..124: X_INTRODUCED_117_ ::var_is_introduced :: is_defined_var;
var -178..213: X_INTRODUCED_118_ ::var_is_introduced :: is_defined_var;
var -178..118: X_INTRODUCED_119_ ::var_is_introduced :: is_defined_var;
var bool: X_INTRODUCED_120_ ::var_is_introduced :: is_defined_var;
var bool: X_INTRODUCED_121_ ::var_is_introduced :: is_defined_var;
var bool: X_INTRODUCED_122_ ::var_is_introduced :: is_defined_var;
var 1..4: X_INTRODUCED_123_ ::var_is_introduced ;
var bool: X_INTRODUCED_124_ ::var_is_introduced :: is_defined_var;
var 0..1: X_INTRODUCED_125_ ::var_is_introduced :: is_defined_var;
var bool: X_INTRODUCED_126_ ::var_is_introduced :: is_defined_var;
var 0..1: X_INTRODUCED_127_ ::var_is_introduced :: is_defined_var;
var bool: X_INTRODUCED_128_ ::var_is_introduced :: is_defined_var;
var 0..1: X_INTRODUCED_129_ ::var_is_introduced :: is_defined_var;
var 1..8: X_INTRODUCED_130_ ::var_is_introduced :: is_defined_var;
var 1..4: X_INTRODUCED_131_ ::var_is_introduced :: is_defined_var;
var bool: X_INTRODUCED_132_ ::var_is_introduced :: is_defined_var;
var bool: X_INTRODUCED_133_ ::var_is_introduced :: is_defined_var;
var -1..0: X_INTRODUCED_134_ ::var_is_introduced ;
var bool: X_INTRODUCED_140_ ::var_is_introduced :: is_defined_var;
var bool: X_INTRODUCED_141_ ::var_is_introduced :: is_defined_var;
var -1..0: X_INTRODUCED_143_ ::var_is_introduced :: is_defined_var;
var bool: X_INTRODUCED_145_ ::var_is_introduced :: is_defined_var;
var -118..178: X_INTRODUCED_146_ ::var_is_introduced ;
var bool: X_INTRODUCED_152_ ::var_is_introduced :: is_defined_var;
var bool: X_INTRODUCED_153_ ::var_is_introduced :: is_defined_var;
var bool: X_INTRODUCED_154_ ::var_is_introduced :: is_defined_var;
var -1..0: X_INTRODUCED_155_ ::var_is_introduced ;
var bool: X_INTRODUCED_161_ ::var_is_introduced :: is_defined_var;
var bool: X_INTRODUCED_162_ ::var_is_introduced :: is_defined_var;
var -118..178: X_INTRODUCED_164_ ::var_is_introduced :: is_defined_var;
var bool: X_INTRODUCED_166_ ::var_is_introduced :: is_defined_var;
var -213..178: X_INTRODUCED_167_ ::var_is_introduced ;
var bool: X_INTRODUCED_173_ ::var_is_introduced :: is_defined_var;
var bool: X_INTRODUCED_174_ ::var_is_introduced :: is_defined_var;
var -213..178: X_INTRODUCED_176_ ::var_is_introduced :: is_defined_var;
var bool: X_INTRODUCED_178_ ::var_is_introduced :: is_defined_var;
var bool: X_INTRODUCED_182_ ::var_is_introduced :: is_defined_var;
var bool: X_INTRODUCED_184_ ::var_is_introduced :: is_defined_var;
var bool: X_INTRODUCED_186_ ::var_is_introduced :: is_defined_var;
var bool: X_INTRODUCED_187_ ::var_is_introduced :: is_defined_var;
var bool: X_INTRODUCED_188_ ::var_is_introduced :: is_defined_var;
var -178..124: X_INTRODUCED_189_ ::var_is_introduced :: is_defined_var;
var -178..213: X_INTRODUCED_190_ ::var_is_introduced :: is_defined_var;
var -178..118: X_INTRODUCED_191_ ::var_is_introduced :: is_defined_var;
var bool: X_INTRODUCED_192_ ::var_is_introduced :: is_defined_var;
var bool: X_INTRODUCED_193_ ::var_is_introduced :: is_defined_var;
var bool: X_INTRODUCED_194_ ::var_is_introduced :: is_defined_var;
var 1..4: X_INTRODUCED_195_ ::var_is_introduced ;
var bool: X_INTRODUCED_196_ ::var_is_introduced :: is_defined_var;
var 0..1: X_INTRODUCED_197_ ::var_is_introduced :: is_defined_var;
var bool: X_INTRODUCED_198_ ::var_is_introduced :: is_defined_var;
var 0..1: X_INTRODUCED_199_ ::var_is_introduced :: is_defined_var;
var bool: X_INTRODUCED_200_ ::var_is_introduced :: is_defined_var;
var 0..1: X_INTRODUCED_201_ ::var_is_introduced :: is_defined_var;
var 1..8: X_INTRODUCED_202_ ::var_is_introduced :: is_defined_var;
var 1..4: X_INTRODUCED_203_ ::var_is_introduced :: is_defined_var;
var bool: X_INTRODUCED_204_ ::var_is_introduced :: is_defined_var;
var bool: X_INTRODUCED_205_ ::var_is_introduced :: is_defined_var;
var -1..0: X_INTRODUCED_206_ ::var_is_introduced ;
var bool: X_INTRODUCED_212_ ::var_is_introduced :: is_defined_var;
var bool: X_INTRODUCED_213_ ::var_is_introduced :: is_defined_var;
var -1..0: X_INTRODUCED_215_ ::var_is_introduced :: is_defined_var;
var bool: X_INTRODUCED_217_ ::var_is_introduced :: is_defined_var;
var -118..178: X_INTRODUCED_218_ ::var_is_introduced ;
var bool: X_INTRODUCED_224_ ::var_is_introduced :: is_defined_var;
var bool: X_INTRODUCED_225_ ::var_is_introduced :: is_defined_var;
var bool: X_INTRODUCED_226_ ::var_is_introduced :: is_defined_var;
var -1..0: X_INTRODUCED_227_ ::var_is_introduced ;
var bool: X_INTRODUCED_233_ ::var_is_introduced :: is_defined_var;
var bool: X_INTRODUCED_234_ ::var_is_introduced :: is_defined_var;
var -118..178: X_INTRODUCED_236_ ::var_is_introduced :: is_defined_var;
var bool: X_INTRODUCED_238_ ::var_is_introduced :: is_defined_var;
var -213..178: X_INTRODUCED_239_ ::var_is_introduced ;
var bool: X_INTRODUCED_245_ ::var_is_introduced :: is_defined_var;
var bool: X_INTRODUCED_246_ ::var_is_introduced :: is_defined_var;
var -213..178: X_INTRODUCED_248_ ::var_is_introduced :: is_defined_var;
var bool: X_INTRODUCED_250_ ::var_is_introduced :: is_defined_var;
var bool: X_INTRODUCED_254_ ::var_is_introduced :: is_defined_var;
var bool: X_INTRODUCED_256_ ::var_is_introduced :: is_defined_var;
var bool: X_INTRODUCED_258_ ::var_is_introduced :: is_defined_var;
var bool: X_INTRODUCED_259_ ::var_is_introduced :: is_defined_var;
var bool: X_INTRODUCED_264_ ::var_is_introduced :: is_defined_var;
var bool: X_INTRODUCED_265_ ::var_is_introduced :: is_defined_var;
var bool: X_INTRODUCED_266_ ::var_is_introduced :: is_defined_var;
var bool: X_INTRODUCED_267_ ::var_is_introduced :: is_defined_var;
var bool: X_INTRODUCED_268_ ::var_is_introduced :: is_defined_var;
var bool: X_INTRODUCED_269_ ::var_is_introduced :: is_defined_var;
var bool: X_INTRODUCED_270_ ::var_is_introduced :: is_defined_var;
var bool: X_INTRODUCED_271_ ::var_is_introduced :: is_defined_var;
var bool: X_INTRODUCED_272_ ::var_is_introduced :: is_defined_var;
var bool: X_INTRODUCED_273_ ::var_is_introduced :: is_defined_var;
var bool: X_INTRODUCED_274_ ::var_is_introduced :: is_defined_var;
var bool: X_INTRODUCED_275_ ::var_is_introduced :: is_defined_var;
var bool: X_INTRODUCED_276_ ::var_is_introduced :: is_defined_var;
var bool: X_INTRODUCED_277_ ::var_is_introduced :: is_defined_var;
var bool: X_INTRODUCED_278_ ::var_is_introduced :: is_defined_var;
var 0..124: X_INTRODUCED_280_ ::var_is_introduced :: is_defined_var;
var 1..4: X_INTRODUCED_282_ ::var_is_introduced :: is_defined_var;
var 0..118: X_INTRODUCED_283_ ::var_is_introduced :: is_defined_var;
var 0..213: X_INTRODUCED_284_ ::var_is_introduced :: is_defined_var;
array [1..3] of var int: fox:: output_array([1..3]) = [X_INTRODUCED_0_,X_INTRODUCED_1_,X_INTRODUCED_2_];
array [1..3] of var int: geese:: output_array([1..3]) = [X_INTRODUCED_3_,X_INTRODUCED_4_,X_INTRODUCED_5_];
array [1..3] of var int: corn:: output_array([1..3]) = [X_INTRODUCED_6_,X_INTRODUCED_7_,X_INTRODUCED_8_];
array [1..4] of var int: X_INTRODUCED_66_ ::var_is_introduced  = [0,0,-1,X_INTRODUCED_57_];
array [1..4] of var int: X_INTRODUCED_90_ ::var_is_introduced  = [0,X_INTRODUCED_82_,0,X_INTRODUCED_71_];
array [1..4] of var int: X_INTRODUCED_102_ ::var_is_introduced  = [0,X_INTRODUCED_94_,-1,0];
array [1..4] of var int: X_INTRODUCED_142_ ::var_is_introduced  = [0,0,-1,X_INTRODUCED_134_];
array [1..4] of var int: X_INTRODUCED_163_ ::var_is_introduced  = [0,X_INTRODUCED_155_,0,X_INTRODUCED_146_];
array [1..4] of var int: X_INTRODUCED_175_ ::var_is_introduced  = [0,X_INTRODUCED_167_,-1,0];
array [1..4] of var int: X_INTRODUCED_214_ ::var_is_introduced  = [0,0,-1,X_INTRODUCED_206_];
array [1..4] of var int: X_INTRODUCED_235_ ::var_is_introduced  = [0,X_INTRODUCED_227_,0,X_INTRODUCED_218_];
array [1..4] of var int: X_INTRODUCED_247_ ::var_is_introduced  = [0,X_INTRODUCED_239_,-1,0];
constraint array_int_element(X_INTRODUCED_51_,X_INTRODUCED_42_,X_INTRODUCED_52_):: defines_var(X_INTRODUCED_52_);
constraint bool_clause([X_INTRODUCED_64_],[X_INTRODUCED_56_]);
constraint array_bool_or([X_INTRODUCED_56_,X_INTRODUCED_65_],true);
constraint array_var_int_element(X_INTRODUCED_41_,X_INTRODUCED_66_,X_INTRODUCED_67_):: defines_var(X_INTRODUCED_67_);
constraint bool_clause([X_INTRODUCED_78_],[X_INTRODUCED_56_]);
constraint array_bool_or([X_INTRODUCED_56_,X_INTRODUCED_80_],true);
constraint bool_clause([X_INTRODUCED_88_],[X_INTRODUCED_81_]);
constraint array_bool_or([X_INTRODUCED_81_,X_INTRODUCED_89_],true);
constraint array_var_int_element(X_INTRODUCED_41_,X_INTRODUCED_90_,X_INTRODUCED_91_):: defines_var(X_INTRODUCED_91_);
constraint bool_clause([X_INTRODUCED_100_],[X_INTRODUCED_81_]);
constraint array_bool_or([X_INTRODUCED_81_,X_INTRODUCED_101_],true);
constraint array_var_int_element(X_INTRODUCED_41_,X_INTRODUCED_102_,X_INTRODUCED_103_):: defines_var(X_INTRODUCED_103_);
constraint array_bool_or([X_INTRODUCED_34_,X_INTRODUCED_115_],true);
constraint array_int_element(X_INTRODUCED_130_,X_INTRODUCED_42_,X_INTRODUCED_131_):: defines_var(X_INTRODUCED_131_);
constraint bool_clause([X_INTRODUCED_140_],[X_INTRODUCED_133_]);
constraint array_bool_or([X_INTRODUCED_133_,X_INTRODUCED_141_],true);
constraint array_var_int_element(X_INTRODUCED_123_,X_INTRODUCED_142_,X_INTRODUCED_143_):: defines_var(X_INTRODUCED_143_);
constraint bool_clause([X_INTRODUCED_152_],[X_INTRODUCED_133_]);
constraint array_bool_or([X_INTRODUCED_133_,X_INTRODUCED_153_],true);
constraint bool_clause([X_INTRODUCED_161_],[X_INTRODUCED_154_]);
constraint array_bool_or([X_INTRODUCED_154_,X_INTRODUCED_162_],true);
constraint array_var_int_element(X_INTRODUCED_123_,X_INTRODUCED_163_,X_INTRODUCED_164_):: defines_var(X_INTRODUCED_164_);
constraint bool_clause([X_INTRODUCED_173_],[X_INTRODUCED_154_]);
constraint array_bool_or([X_INTRODUCED_154_,X_INTRODUCED_174_],true);
constraint array_var_int_element(X_INTRODUCED_123_,X_INTRODUCED_175_,X_INTRODUCED_176_):: defines_var(X_INTRODUCED_176_);
constraint array_bool_or([X_INTRODUCED_116_,X_INTRODUCED_187_],true);
constraint array_int_element(X_INTRODUCED_202_,X_INTRODUCED_42_,X_INTRODUCED_203_):: defines_var(X_INTRODUCED_203_);
constraint bool_clause([X_INTRODUCED_212_],[X_INTRODUCED_205_]);
constraint array_bool_or([X_INTRODUCED_205_,X_INTRODUCED_213_],true);
constraint array_var_int_element(X_INTRODUCED_195_,X_INTRODUCED_214_,X_INTRODUCED_215_):: defines_var(X_INTRODUCED_215_);
constraint bool_clause([X_INTRODUCED_224_],[X_INTRODUCED_205_]);
constraint array_bool_or([X_INTRODUCED_205_,X_INTRODUCED_225_],true);
constraint bool_clause([X_INTRODUCED_233_],[X_INTRODUCED_226_]);
constraint array_bool_or([X_INTRODUCED_226_,X_INTRODUCED_234_],true);
constraint array_var_int_element(X_INTRODUCED_195_,X_INTRODUCED_235_,X_INTRODUCED_236_):: defines_var(X_INTRODUCED_236_);
constraint bool_clause([X_INTRODUCED_245_],[X_INTRODUCED_226_]);
constraint array_bool_or([X_INTRODUCED_226_,X_INTRODUCED_246_],true);
constraint array_var_int_element(X_INTRODUCED_195_,X_INTRODUCED_247_,X_INTRODUCED_248_):: defines_var(X_INTRODUCED_248_);
constraint array_bool_or([X_INTRODUCED_188_,X_INTRODUCED_259_],true);
constraint int_lin_le(X_INTRODUCED_260_,[X_INTRODUCED_3_,X_INTRODUCED_0_,X_INTRODUCED_6_],178);
constraint int_lin_le(X_INTRODUCED_260_,[X_INTRODUCED_4_,X_INTRODUCED_1_,X_INTRODUCED_7_],178);
constraint int_lin_le(X_INTRODUCED_260_,[X_INTRODUCED_5_,X_INTRODUCED_2_,X_INTRODUCED_8_],178);
constraint array_bool_or([X_INTRODUCED_264_,X_INTRODUCED_268_],true);
constraint array_bool_or([X_INTRODUCED_269_,X_INTRODUCED_273_],true);
constraint array_bool_or([X_INTRODUCED_274_,X_INTRODUCED_278_],true);
constraint array_var_int_element(X_INTRODUCED_282_,[0,X_INTRODUCED_18_,X_INTRODUCED_19_,X_INTRODUCED_20_],X_INTRODUCED_280_):: defines_var(X_INTRODUCED_280_);
constraint array_var_int_element(X_INTRODUCED_282_,[0,X_INTRODUCED_10_,X_INTRODUCED_11_,X_INTRODUCED_12_],X_INTRODUCED_283_):: defines_var(X_INTRODUCED_283_);
constraint array_var_int_element(X_INTRODUCED_282_,[0,X_INTRODUCED_14_,X_INTRODUCED_15_,X_INTRODUCED_16_],X_INTRODUCED_284_):: defines_var(X_INTRODUCED_284_);
constraint int_lin_eq(X_INTRODUCED_286_,[objective,X_INTRODUCED_284_,X_INTRODUCED_283_,X_INTRODUCED_280_],0):: defines_var(objective);
constraint int_lin_le(X_INTRODUCED_289_,[118,0,X_INTRODUCED_22_,X_INTRODUCED_10_],0);
constraint int_lin_le(X_INTRODUCED_289_,[213,0,X_INTRODUCED_26_,X_INTRODUCED_14_],0);
constraint int_lin_le(X_INTRODUCED_289_,[124,0,X_INTRODUCED_30_,X_INTRODUCED_18_],0);
constraint int_lin_le(X_INTRODUCED_289_,[X_INTRODUCED_22_,X_INTRODUCED_10_,X_INTRODUCED_23_,X_INTRODUCED_11_],0);
constraint int_lin_le(X_INTRODUCED_289_,[X_INTRODUCED_26_,X_INTRODUCED_14_,X_INTRODUCED_27_,X_INTRODUCED_15_],0);
constraint int_lin_le(X_INTRODUCED_289_,[X_INTRODUCED_30_,X_INTRODUCED_18_,X_INTRODUCED_31_,X_INTRODUCED_19_],0);
constraint int_lin_le(X_INTRODUCED_289_,[X_INTRODUCED_23_,X_INTRODUCED_11_,X_INTRODUCED_24_,X_INTRODUCED_12_],0);
constraint int_lin_le(X_INTRODUCED_289_,[X_INTRODUCED_27_,X_INTRODUCED_15_,X_INTRODUCED_28_,X_INTRODUCED_16_],0);
constraint int_lin_le(X_INTRODUCED_289_,[X_INTRODUCED_31_,X_INTRODUCED_19_,X_INTRODUCED_32_,X_INTRODUCED_20_],0);
constraint int_le_reif(trips,0,X_INTRODUCED_34_):: defines_var(X_INTRODUCED_34_);
constraint int_lin_eq([-1,-1],[X_INTRODUCED_6_,X_INTRODUCED_36_],-124):: defines_var(X_INTRODUCED_36_);
constraint int_lin_eq([-1,-1],[X_INTRODUCED_0_,X_INTRODUCED_38_],-118):: defines_var(X_INTRODUCED_38_);
constraint set_in_reif(X_INTRODUCED_38_,0..118,X_INTRODUCED_39_):: defines_var(X_INTRODUCED_39_);
constraint set_in_reif(X_INTRODUCED_36_,0..124,X_INTRODUCED_40_):: defines_var(X_INTRODUCED_40_);
constraint int_lin_le_reif(X_INTRODUCED_44_,[124,X_INTRODUCED_6_],-1,X_INTRODUCED_45_):: defines_var(X_INTRODUCED_45_);
constraint bool2int(X_INTRODUCED_45_,X_INTRODUCED_46_):: defines_var(X_INTRODUCED_46_);
constraint int_lin_le_reif(X_INTRODUCED_44_,[118,X_INTRODUCED_0_],-1,X_INTRODUCED_47_):: defines_var(X_INTRODUCED_47_);
constraint bool2int(X_INTRODUCED_47_,X_INTRODUCED_48_):: defines_var(X_INTRODUCED_48_);
constraint int_lin_le_reif(X_INTRODUCED_44_,[213,X_INTRODUCED_3_],-1,X_INTRODUCED_49_):: defines_var(X_INTRODUCED_49_);
constraint bool2int(X_INTRODUCED_49_,X_INTRODUCED_50_):: defines_var(X_INTRODUCED_50_);
constraint int_lin_eq([2,4,1,-1],[X_INTRODUCED_50_,X_INTRODUCED_48_,X_INTRODUCED_46_,X_INTRODUCED_51_],-1):: defines_var(X_INTRODUCED_51_);
constraint int_eq_reif(X_INTRODUCED_41_,X_INTRODUCED_52_,X_INTRODUCED_53_):: defines_var(X_INTRODUCED_53_);
constraint int_lin_le_reif(X_INTRODUCED_55_,[118,X_INTRODUCED_0_,213,X_INTRODUCED_3_],-1,X_INTRODUCED_56_):: defines_var(X_INTRODUCED_56_);
constraint int_eq_reif(X_INTRODUCED_57_,-1,X_INTRODUCED_64_):: defines_var(X_INTRODUCED_64_);
constraint int_eq_reif(X_INTRODUCED_57_,0,X_INTRODUCED_65_):: defines_var(X_INTRODUCED_65_);
constraint int_lin_eq_reif(X_INTRODUCED_69_,[X_INTRODUCED_22_,118,X_INTRODUCED_0_,X_INTRODUCED_67_],0,X_INTRODUCED_70_):: defines_var(X_INTRODUCED_70_);
constraint int_eq_reif(X_INTRODUCED_71_,0,X_INTRODUCED_78_):: defines_var(X_INTRODUCED_78_);
constraint int_lin_eq_reif(X_INTRODUCED_79_,[X_INTRODUCED_71_,118,X_INTRODUCED_0_],0,X_INTRODUCED_80_):: defines_var(X_INTRODUCED_80_);
constraint int_lin_le_reif(X_INTRODUCED_55_,[213,X_INTRODUCED_3_,124,X_INTRODUCED_6_],-1,X_INTRODUCED_81_):: defines_var(X_INTRODUCED_81_);
constraint int_eq_reif(X_INTRODUCED_82_,-1,X_INTRODUCED_88_):: defines_var(X_INTRODUCED_88_);
constraint int_eq_reif(X_INTRODUCED_82_,0,X_INTRODUCED_89_):: defines_var(X_INTRODUCED_89_);
constraint int_lin_eq_reif(X_INTRODUCED_69_,[X_INTRODUCED_26_,213,X_INTRODUCED_3_,X_INTRODUCED_91_],0,X_INTRODUCED_93_):: defines_var(X_INTRODUCED_93_);
constraint int_eq_reif(X_INTRODUCED_94_,-1,X_INTRODUCED_100_):: defines_var(X_INTRODUCED_100_);
constraint int_lin_eq_reif(X_INTRODUCED_79_,[X_INTRODUCED_94_,213,X_INTRODUCED_3_],0,X_INTRODUCED_101_):: defines_var(X_INTRODUCED_101_);
constraint int_lin_eq_reif(X_INTRODUCED_69_,[X_INTRODUCED_30_,124,X_INTRODUCED_6_,X_INTRODUCED_103_],0,X_INTRODUCED_105_):: defines_var(X_INTRODUCED_105_);
constraint int_lin_eq_reif(X_INTRODUCED_109_,[X_INTRODUCED_10_,0,X_INTRODUCED_0_],0,X_INTRODUCED_110_):: defines_var(X_INTRODUCED_110_);
constraint int_lin_eq_reif(X_INTRODUCED_109_,[X_INTRODUCED_14_,0,X_INTRODUCED_3_],0,X_INTRODUCED_112_):: defines_var(X_INTRODUCED_112_);
constraint int_lin_eq_reif(X_INTRODUCED_109_,[X_INTRODUCED_18_,0,X_INTRODUCED_6_],0,X_INTRODUCED_114_):: defines_var(X_INTRODUCED_114_);
constraint array_bool_and([X_INTRODUCED_39_,X_INTRODUCED_40_,X_INTRODUCED_53_,X_INTRODUCED_70_,X_INTRODUCED_93_,X_INTRODUCED_105_,X_INTRODUCED_110_,X_INTRODUCED_112_,X_INTRODUCED_114_],X_INTRODUCED_115_):: defines_var(X_INTRODUCED_115_);
constraint int_le_reif(trips,1,X_INTRODUCED_116_):: defines_var(X_INTRODUCED_116_);
constraint int_lin_eq([1,-1,-1],[X_INTRODUCED_18_,X_INTRODUCED_7_,X_INTRODUCED_117_],0):: defines_var(X_INTRODUCED_117_);
constraint int_lin_eq([1,-1,-1],[X_INTRODUCED_14_,X_INTRODUCED_4_,X_INTRODUCED_118_],0):: defines_var(X_INTRODUCED_118_);
constraint int_lin_eq([1,-1,-1],[X_INTRODUCED_10_,X_INTRODUCED_1_,X_INTRODUCED_119_],0):: defines_var(X_INTRODUCED_119_);
constraint set_in_reif(X_INTRODUCED_119_,0..118,X_INTRODUCED_120_):: defines_var(X_INTRODUCED_120_);
constraint set_in_reif(X_INTRODUCED_118_,0..213,X_INTRODUCED_121_):: defines_var(X_INTRODUCED_121_);
constraint set_in_reif(X_INTRODUCED_117_,0..124,X_INTRODUCED_122_):: defines_var(X_INTRODUCED_122_);
constraint int_lin_le_reif(X_INTRODUCED_44_,[X_INTRODUCED_18_,X_INTRODUCED_7_],-1,X_INTRODUCED_124_):: defines_var(X_INTRODUCED_124_);
constraint bool2int(X_INTRODUCED_124_,X_INTRODUCED_125_):: defines_var(X_INTRODUCED_125_);
constraint int_lin_le_reif(X_INTRODUCED_44_,[X_INTRODUCED_10_,X_INTRODUCED_1_],-1,X_INTRODUCED_126_):: defines_var(X_INTRODUCED_126_);
constraint bool2int(X_INTRODUCED_126_,X_INTRODUCED_127_):: defines_var(X_INTRODUCED_127_);
constraint int_lin_le_reif(X_INTRODUCED_44_,[X_INTRODUCED_14_,X_INTRODUCED_4_],-1,X_INTRODUCED_128_):: defines_var(X_INTRODUCED_128_);
constraint bool2int(X_INTRODUCED_128_,X_INTRODUCED_129_):: defines_var(X_INTRODUCED_129_);
constraint int_lin_eq([2,4,1,-1],[X_INTRODUCED_129_,X_INTRODUCED_127_,X_INTRODUCED_125_,X_INTRODUCED_130_],-1):: defines_var(X_INTRODUCED_130_);
constraint int_eq_reif(X_INTRODUCED_123_,X_INTRODUCED_131_,X_INTRODUCED_132_):: defines_var(X_INTRODUCED_132_);
constraint int_lin_le_reif(X_INTRODUCED_55_,[X_INTRODUCED_10_,X_INTRODUCED_1_,X_INTRODUCED_14_,X_INTRODUCED_4_],-1,X_INTRODUCED_133_):: defines_var(X_INTRODUCED_133_);
constraint int_eq_reif(X_INTRODUCED_134_,-1,X_INTRODUCED_140_):: defines_var(X_INTRODUCED_140_);
constraint int_eq_reif(X_INTRODUCED_134_,0,X_INTRODUCED_141_):: defines_var(X_INTRODUCED_141_);
constraint int_lin_eq_reif(X_INTRODUCED_69_,[X_INTRODUCED_11_,X_INTRODUCED_10_,X_INTRODUCED_1_,X_INTRODUCED_143_],0,X_INTRODUCED_145_):: defines_var(X_INTRODUCED_145_);
constraint int_eq_reif(X_INTRODUCED_146_,0,X_INTRODUCED_152_):: defines_var(X_INTRODUCED_152_);
constraint int_lin_eq_reif(X_INTRODUCED_79_,[X_INTRODUCED_146_,X_INTRODUCED_10_,X_INTRODUCED_1_],0,X_INTRODUCED_153_):: defines_var(X_INTRODUCED_153_);
constraint int_lin_le_reif(X_INTRODUCED_55_,[X_INTRODUCED_14_,X_INTRODUCED_4_,X_INTRODUCED_18_,X_INTRODUCED_7_],-1,X_INTRODUCED_154_):: defines_var(X_INTRODUCED_154_);
constraint int_eq_reif(X_INTRODUCED_155_,-1,X_INTRODUCED_161_):: defines_var(X_INTRODUCED_161_);
constraint int_eq_reif(X_INTRODUCED_155_,0,X_INTRODUCED_162_):: defines_var(X_INTRODUCED_162_);
constraint int_lin_eq_reif(X_INTRODUCED_69_,[X_INTRODUCED_15_,X_INTRODUCED_14_,X_INTRODUCED_4_,X_INTRODUCED_164_],0,X_INTRODUCED_166_):: defines_var(X_INTRODUCED_166_);
constraint int_eq_reif(X_INTRODUCED_167_,-1,X_INTRODUCED_173_):: defines_var(X_INTRODUCED_173_);
constraint int_lin_eq_reif(X_INTRODUCED_79_,[X_INTRODUCED_167_,X_INTRODUCED_14_,X_INTRODUCED_4_],0,X_INTRODUCED_174_):: defines_var(X_INTRODUCED_174_);
constraint int_lin_eq_reif(X_INTRODUCED_69_,[X_INTRODUCED_19_,X_INTRODUCED_18_,X_INTRODUCED_7_,X_INTRODUCED_176_],0,X_INTRODUCED_178_):: defines_var(X_INTRODUCED_178_);
constraint int_lin_eq_reif(X_INTRODUCED_109_,[X_INTRODUCED_23_,X_INTRODUCED_22_,X_INTRODUCED_1_],0,X_INTRODUCED_182_):: defines_var(X_INTRODUCED_182_);
constraint int_lin_eq_reif(X_INTRODUCED_109_,[X_INTRODUCED_27_,X_INTRODUCED_26_,X_INTRODUCED_4_],0,X_INTRODUCED_184_):: defines_var(X_INTRODUCED_184_);
constraint int_lin_eq_reif(X_INTRODUCED_109_,[X_INTRODUCED_31_,X_INTRODUCED_30_,X_INTRODUCED_7_],0,X_INTRODUCED_186_):: defines_var(X_INTRODUCED_186_);
constraint array_bool_and([X_INTRODUCED_120_,X_INTRODUCED_121_,X_INTRODUCED_122_,X_INTRODUCED_132_,X_INTRODUCED_145_,X_INTRODUCED_166_,X_INTRODUCED_178_,X_INTRODUCED_182_,X_INTRODUCED_184_,X_INTRODUCED_186_],X_INTRODUCED_187_):: defines_var(X_INTRODUCED_187_);
constraint int_le_reif(trips,2,X_INTRODUCED_188_):: defines_var(X_INTRODUCED_188_);
constraint int_lin_eq([1,-1,-1],[X_INTRODUCED_31_,X_INTRODUCED_8_,X_INTRODUCED_189_],0):: defines_var(X_INTRODUCED_189_);
constraint int_lin_eq([1,-1,-1],[X_INTRODUCED_27_,X_INTRODUCED_5_,X_INTRODUCED_190_],0):: defines_var(X_INTRODUCED_190_);
constraint int_lin_eq([1,-1,-1],[X_INTRODUCED_23_,X_INTRODUCED_2_,X_INTRODUCED_191_],0):: defines_var(X_INTRODUCED_191_);
constraint set_in_reif(X_INTRODUCED_191_,0..118,X_INTRODUCED_192_):: defines_var(X_INTRODUCED_192_);
constraint set_in_reif(X_INTRODUCED_190_,0..213,X_INTRODUCED_193_):: defines_var(X_INTRODUCED_193_);
constraint set_in_reif(X_INTRODUCED_189_,0..124,X_INTRODUCED_194_):: defines_var(X_INTRODUCED_194_);
constraint int_lin_le_reif(X_INTRODUCED_44_,[X_INTRODUCED_31_,X_INTRODUCED_8_],-1,X_INTRODUCED_196_):: defines_var(X_INTRODUCED_196_);
constraint bool2int(X_INTRODUCED_196_,X_INTRODUCED_197_):: defines_var(X_INTRODUCED_197_);
constraint int_lin_le_reif(X_INTRODUCED_44_,[X_INTRODUCED_23_,X_INTRODUCED_2_],-1,X_INTRODUCED_198_):: defines_var(X_INTRODUCED_198_);
constraint bool2int(X_INTRODUCED_198_,X_INTRODUCED_199_):: defines_var(X_INTRODUCED_199_);
constraint int_lin_le_reif(X_INTRODUCED_44_,[X_INTRODUCED_27_,X_INTRODUCED_5_],-1,X_INTRODUCED_200_):: defines_var(X_INTRODUCED_200_);
constraint bool2int(X_INTRODUCED_200_,X_INTRODUCED_201_):: defines_var(X_INTRODUCED_201_);
constraint int_lin_eq([2,4,1,-1],[X_INTRODUCED_201_,X_INTRODUCED_199_,X_INTRODUCED_197_,X_INTRODUCED_202_],-1):: defines_var(X_INTRODUCED_202_);
constraint int_eq_reif(X_INTRODUCED_195_,X_INTRODUCED_203_,X_INTRODUCED_204_):: defines_var(X_INTRODUCED_204_);
constraint int_lin_le_reif(X_INTRODUCED_55_,[X_INTRODUCED_23_,X_INTRODUCED_2_,X_INTRODUCED_27_,X_INTRODUCED_5_],-1,X_INTRODUCED_205_):: defines_var(X_INTRODUCED_205_);
constraint int_eq_reif(X_INTRODUCED_206_,-1,X_INTRODUCED_212_):: defines_var(X_INTRODUCED_212_);
constraint int_eq_reif(X_INTRODUCED_206_,0,X_INTRODUCED_213_):: defines_var(X_INTRODUCED_213_);
constraint int_lin_eq_reif(X_INTRODUCED_69_,[X_INTRODUCED_24_,X_INTRODUCED_23_,X_INTRODUCED_2_,X_INTRODUCED_215_],0,X_INTRODUCED_217_):: defines_var(X_INTRODUCED_217_);
constraint int_eq_reif(X_INTRODUCED_218_,0,X_INTRODUCED_224_):: defines_var(X_INTRODUCED_224_);
constraint int_lin_eq_reif(X_INTRODUCED_79_,[X_INTRODUCED_218_,X_INTRODUCED_23_,X_INTRODUCED_2_],0,X_INTRODUCED_225_):: defines_var(X_INTRODUCED_225_);
constraint int_lin_le_reif(X_INTRODUCED_55_,[X_INTRODUCED_27_,X_INTRODUCED_5_,X_INTRODUCED_31_,X_INTRODUCED_8_],-1,X_INTRODUCED_226_):: defines_var(X_INTRODUCED_226_);
constraint int_eq_reif(X_INTRODUCED_227_,-1,X_INTRODUCED_233_):: defines_var(X_INTRODUCED_233_);
constraint int_eq_reif(X_INTRODUCED_227_,0,X_INTRODUCED_234_):: defines_var(X_INTRODUCED_234_);
constraint int_lin_eq_reif(X_INTRODUCED_69_,[X_INTRODUCED_28_,X_INTRODUCED_27_,X_INTRODUCED_5_,X_INTRODUCED_236_],0,X_INTRODUCED_238_):: defines_var(X_INTRODUCED_238_);
constraint int_eq_reif(X_INTRODUCED_239_,-1,X_INTRODUCED_245_):: defines_var(X_INTRODUCED_245_);
constraint int_lin_eq_reif(X_INTRODUCED_79_,[X_INTRODUCED_239_,X_INTRODUCED_27_,X_INTRODUCED_5_],0,X_INTRODUCED_246_):: defines_var(X_INTRODUCED_246_);
constraint int_lin_eq_reif(X_INTRODUCED_69_,[X_INTRODUCED_32_,X_INTRODUCED_31_,X_INTRODUCED_8_,X_INTRODUCED_248_],0,X_INTRODUCED_250_):: defines_var(X_INTRODUCED_250_);
constraint int_lin_eq_reif(X_INTRODUCED_109_,[X_INTRODUCED_12_,X_INTRODUCED_11_,X_INTRODUCED_2_],0,X_INTRODUCED_254_):: defines_var(X_INTRODUCED_254_);
constraint int_lin_eq_reif(X_INTRODUCED_109_,[X_INTRODUCED_16_,X_INTRODUCED_15_,X_INTRODUCED_5_],0,X_INTRODUCED_256_):: defines_var(X_INTRODUCED_256_);
constraint int_lin_eq_reif(X_INTRODUCED_109_,[X_INTRODUCED_20_,X_INTRODUCED_19_,X_INTRODUCED_8_],0,X_INTRODUCED_258_):: defines_var(X_INTRODUCED_258_);
constraint array_bool_and([X_INTRODUCED_192_,X_INTRODUCED_193_,X_INTRODUCED_194_,X_INTRODUCED_204_,X_INTRODUCED_217_,X_INTRODUCED_238_,X_INTRODUCED_250_,X_INTRODUCED_254_,X_INTRODUCED_256_,X_INTRODUCED_258_],X_INTRODUCED_259_):: defines_var(X_INTRODUCED_259_);
constraint int_le_reif(1,trips,X_INTRODUCED_264_):: defines_var(X_INTRODUCED_264_);
constraint int_eq_reif(X_INTRODUCED_0_,0,X_INTRODUCED_265_):: defines_var(X_INTRODUCED_265_);
constraint int_eq_reif(X_INTRODUCED_3_,0,X_INTRODUCED_266_):: defines_var(X_INTRODUCED_266_);
constraint int_eq_reif(X_INTRODUCED_6_,0,X_INTRODUCED_267_):: defines_var(X_INTRODUCED_267_);
constraint array_bool_and([X_INTRODUCED_265_,X_INTRODUCED_266_,X_INTRODUCED_267_],X_INTRODUCED_268_):: defines_var(X_INTRODUCED_268_);
constraint int_le_reif(2,trips,X_INTRODUCED_269_):: defines_var(X_INTRODUCED_269_);
constraint int_eq_reif(X_INTRODUCED_1_,0,X_INTRODUCED_270_):: defines_var(X_INTRODUCED_270_);
constraint int_eq_reif(X_INTRODUCED_4_,0,X_INTRODUCED_271_):: defines_var(X_INTRODUCED_271_);
constraint int_eq_reif(X_INTRODUCED_7_,0,X_INTRODUCED_272_):: defines_var(X_INTRODUCED_272_);
constraint array_bool_and([X_INTRODUCED_270_,X_INTRODUCED_271_,X_INTRODUCED_272_],X_INTRODUCED_273_):: defines_var(X_INTRODUCED_273_);
constraint int_le_reif(3,trips,X_INTRODUCED_274_):: defines_var(X_INTRODUCED_274_);
constraint int_eq_reif(X_INTRODUCED_2_,0,X_INTRODUCED_275_):: defines_var(X_INTRODUCED_275_);
constraint int_eq_reif(X_INTRODUCED_5_,0,X_INTRODUCED_276_):: defines_var(X_INTRODUCED_276_);
constraint int_eq_reif(X_INTRODUCED_8_,0,X_INTRODUCED_277_):: defines_var(X_INTRODUCED_277_);
constraint array_bool_and([X_INTRODUCED_275_,X_INTRODUCED_276_,X_INTRODUCED_277_],X_INTRODUCED_278_):: defines_var(X_INTRODUCED_278_);
constraint int_lin_eq([1,-1],[trips,X_INTRODUCED_282_],-1):: domain:: defines_var(X_INTRODUCED_282_);
solve :: seq_search([int_search([trips],input_order,indomain_min,complete),int_search([X_INTRODUCED_0_,X_INTRODUCED_3_,X_INTRODUCED_6_,X_INTRODUCED_1_,X_INTRODUCED_4_,X_INTRODUCED_7_,X_INTRODUCED_2_,X_INTRODUCED_5_,X_INTRODUCED_8_],input_order,indomain_max,complete)]) maximize objective;
